% demand
num_movements = 31;
loading_factor = [1050, 1350, 1700, 1600, 850, 1500, 1600, 1850, 1900, 1550, 1350, 1800, 1050, 1050, 850, 1150, 1650, 1000, 1800, 1500, 1850, 1400, 1450, 1850, 1600, 1700, 1150, 950, 1550, 1750, 1200];
pickup_time = [0, 0, 0, 0, 0, 2, 2, 2, 2, 4, 5, 5, 5, 5, 5, 7, 8, 8, 9, 9, 9, 10, 10, 10, 10, 11, 12, 12, 12, 12, 12];
delivery_time = [2, 2, 1, 2, 2, 3, 5, 4, 4, 5, 7, 7, 7, 9, 6, 9, 10, 9, 10, 10, 10, 11, 12, 12, 12, 12, 14, 13, 14, 14, 14];

% transporter definition
total_capacity = 7000;
num_decks = 3;
capacity = [3000, 1000, 3000];

% ways out of decks
num_ways_out = 1;
paths_out = array3d(decks, ways_out, decks, [
% ways out of deck d1
2, 3, 0, 

% ways out of deck d2
3, 0, 0, 

% ways out of deck d3
0, 0, 0,	

]);

